p edge 100 495
e 1 5
e 1 16
e 1 21
e 1 39
e 1 50
e 1 52
e 1 70
e 1 81
e 1 84
e 1 90
e 1 91
e 1 92
e 1 93
e 1 99
e 2 3
e 2 12
e 2 18
e 2 19
e 2 21
e 2 23
e 2 26
e 2 30
e 2 41
e 2 57
e 2 72
e 2 85
e 3 4
e 3 29
e 3 32
e 3 35
e 3 36
e 3 56
e 3 62
e 3 81
e 3 86
e 3 100
e 4 5
e 4 10
e 4 44
e 4 46
e 4 92
e 4 97
e 5 12
e 5 16
e 5 20
e 5 36
e 5 41
e 5 47
e 5 79
e 6 32
e 6 42
e 6 43
e 6 55
e 6 72
e 6 73
e 6 88
e 6 89
e 6 90
e 7 24
e 7 47
e 7 54
e 7 55
e 7 65
e 7 72
e 7 90
e 7 92
e 8 10
e 8 39
e 8 42
e 8 46
e 8 61
e 8 90
e 9 18
e 9 33
e 9 37
e 9 44
e 9 55
e 9 68
e 9 80
e 9 93
e 10 14
e 10 16
e 10 17
e 10 34
e 10 36
e 10 51
e 10 66
e 10 74
e 10 99
e 11 21
e 11 23
e 11 29
e 11 31
e 11 44
e 11 54
e 11 55
e 11 64
e 11 67
e 11 72
e 11 86
e 11 92
e 12 14
e 12 21
e 12 33
e 12 35
e 12 36
e 12 45
e 12 46
e 12 47
e 12 56
e 12 64
e 12 68
e 12 92
e 12 95
e 13 33
e 13 46
e 13 49
e 13 54
e 13 55
e 13 64
e 13 66
e 13 68
e 13 75
e 13 92
e 13 95
e 13 99
e 14 16
e 14 27
e 14 36
e 14 40
e 14 55
e 14 86
e 14 92
e 15 24
e 15 28
e 15 31
e 15 32
e 15 34
e 15 37
e 15 61
e 15 85
e 15 94
e 15 95
e 16 18
e 16 19
e 16 25
e 16 42
e 16 55
e 16 56
e 16 61
e 16 66
e 16 72
e 16 74
e 16 83
e 16 88
e 16 95
e 17 23
e 17 36
e 17 52
e 17 56
e 17 65
e 18 24
e 18 32
e 18 40
e 18 49
e 18 81
e 19 32
e 19 41
e 19 89
e 19 91
e 19 93
e 20 30
e 20 36
e 20 50
e 20 54
e 20 85
e 21 41
e 21 55
e 21 74
e 21 78
e 21 90
e 21 94
e 21 95
e 21 96
e 21 99
e 22 37
e 22 48
e 22 55
e 22 65
e 22 78
e 22 93
e 23 41
e 23 46
e 23 52
e 23 55
e 23 68
e 23 85
e 23 86
e 23 98
e 24 30
e 24 31
e 24 45
e 24 48
e 24 53
e 24 71
e 24 72
e 24 79
e 25 36
e 25 51
e 25 54
e 25 55
e 25 67
e 25 70
e 25 76
e 25 94
e 26 36
e 26 43
e 26 44
e 26 78
e 27 30
e 27 34
e 27 40
e 27 45
e 27 47
e 27 51
e 27 52
e 27 67
e 27 72
e 27 77
e 27 84
e 27 93
e 28 46
e 28 59
e 28 64
e 28 72
e 28 83
e 28 98
e 29 37
e 29 54
e 29 63
e 29 75
e 29 87
e 29 90
e 29 91
e 29 99
e 30 47
e 30 57
e 30 60
e 30 72
e 30 86
e 30 93
e 31 44
e 31 47
e 31 58
e 31 67
e 31 81
e 31 84
e 31 87
e 31 91
e 32 41
e 32 43
e 32 48
e 32 78
e 32 99
e 33 38
e 33 45
e 33 51
e 33 73
e 33 85
e 33 90
e 34 39
e 34 40
e 34 82
e 34 94
e 35 63
e 35 67
e 35 74
e 36 46
e 36 48
e 36 71
e 36 90
e 36 100
e 37 40
e 37 51
e 37 59
e 37 61
e 37 78
e 37 88
e 38 43
e 38 51
e 38 84
e 38 96
e 38 99
e 39 41
e 39 42
e 39 70
e 39 79
e 39 82
e 39 100
e 40 43
e 40 48
e 40 50
e 40 68
e 40 80
e 40 91
e 40 93
e 42 66
e 42 72
e 42 77
e 42 88
e 43 83
e 43 89
e 43 92
e 43 98
e 44 53
e 44 67
e 44 83
e 44 85
e 44 97
e 45 54
e 45 63
e 45 70
e 45 83
e 45 93
e 45 94
e 46 48
e 46 49
e 46 54
e 46 55
e 46 57
e 46 58
e 46 59
e 46 60
e 46 64
e 46 75
e 46 76
e 47 48
e 47 49
e 47 51
e 47 55
e 47 57
e 47 66
e 47 74
e 47 96
e 48 81
e 48 85
e 49 70
e 49 74
e 49 78
e 49 80
e 49 81
e 49 86
e 49 87
e 50 69
e 50 75
e 50 76
e 50 85
e 50 89
e 50 96
e 51 59
e 51 60
e 51 61
e 51 69
e 51 72
e 51 77
e 51 83
e 51 88
e 52 63
e 52 89
e 52 91
e 52 92
e 52 97
e 52 99
e 53 54
e 53 55
e 53 59
e 53 69
e 53 85
e 53 89
e 54 60
e 54 83
e 54 86
e 54 94
e 54 98
e 55 56
e 55 70
e 55 81
e 55 94
e 55 100
e 56 58
e 56 77
e 56 87
e 56 91
e 56 100
e 57 58
e 57 61
e 57 63
e 57 68
e 57 71
e 57 72
e 57 76
e 57 98
e 58 65
e 58 80
e 58 81
e 58 93
e 59 62
e 59 70
e 59 90
e 59 96
e 60 64
e 60 68
e 60 71
e 60 78
e 60 86
e 61 95
e 62 63
e 62 66
e 62 93
e 62 94
e 62 96
e 62 100
e 63 70
e 63 73
e 63 78
e 64 65
e 65 66
e 65 73
e 65 81
e 65 95
e 65 97
e 65 100
e 66 84
e 66 88
e 66 92
e 66 96
e 67 79
e 67 87
e 67 89
e 67 91
e 68 87
e 69 73
e 69 75
e 69 83
e 70 81
e 70 86
e 71 77
e 71 81
e 71 100
e 72 93
e 73 74
e 73 77
e 73 80
e 73 84
e 73 85
e 73 89
e 73 90
e 74 75
e 74 92
e 74 97
e 75 83
e 76 77
e 76 80
e 76 86
e 76 92
e 77 80
e 77 93
e 77 96
e 77 99
e 78 79
e 78 82
e 78 97
e 79 96
e 79 98
e 80 86
e 80 92
e 81 99
e 83 98
e 84 85
e 84 87
e 85 89
e 85 95
e 85 100
e 86 97
e 86 99
e 87 95
e 88 92
e 89 92
e 89 96
e 90 100
e 92 100
e 93 99
e 95 99
e 96 99
e 96 100
